(set-logic QF_S)
(declare-fun var0 () String)
(declare-fun var1 () String)
(declare-fun var2 () String)
(declare-fun var3 () String)
(declare-fun var4 () Int)
(declare-fun var5 () Int)
(declare-fun var6 () Int)
(assert (str.contains var0 var1))
(assert (< (str.indexof (str.at var2 70) (str.replace var3 var0 var1) (str.to.int var1)) (str.indexof var0 "lq)l*Q" var4)))
(assert (> (str.len var0) (str.to.int var3)))
(assert (not (<= var5 var6)))
(check-sat)